c read Graph
c width = 224
c time = 276 ms
c width = 12
c time = 353 ms
c width = 11
c time = 1502 ms
c width = 10
c time = 1659 ms
c width = 9
c time = 31423 ms
c width = 9
c time = 299896 ms
s td 390 10 467
b 1 31 392
b 2 196 198
b 3 151 388 466 467
b 4 125 200 201 393
b 5 118 201 202 203
b 6 9 205 206 207
b 7 152 207 208 211
b 8 98 211 212 213
b 9 83 213 214 215
b 10 15 217 218 220
b 11 126 220 221 222
b 12 134 222 223 224
b 13 71 226 227 233
b 14 112 233 234 239
b 15 171 240 241 242
b 16 191 242 243 245
b 17 114 245 246 247
b 18 104 247 248 251
b 19 69 251 252 260
b 20 12 260 261 266
b 21 122 268 269 270
b 22 21 274 275 277
b 23 6 278 279 280
b 24 131 280 281 283
b 25 29 283 284 285
b 26 1 286 287 288
b 27 75 288 289 290
b 28 90 290 291 292
b 29 154 292 293 295
b 30 86 296 297 298
b 31 120 298 299 302
b 32 7 302 303 304
b 33 147 305 306 308
b 34 93 308 309 310
b 35 113 310 311 314
b 36 63 314 315 316
b 37 107 316 317 319
b 38 133 319 320 327
b 39 44 327 328 331
b 40 115 333 334 335
b 41 56 335 336 338
b 42 182 339 340 341
b 43 155 342 343 347
b 44 143 347 348 358
b 45 167 359 360 363
b 46 163 363 364 367
b 47 166 373 374 382
b 48 186 382 383 384
b 49 195 384 385 387
b 50 75 90 288 290 467
b 51 90 288 290 292 467
b 52 29 112 280 292 347 358 387 459 461 464
b 53 29 112 143 347 358 461 464
b 54 29 112 143 461 462 464
b 55 29 112 462 463 464
b 56 29 280 285 292 387 388 459 461 464
b 57 29 81 280 285 387 388 459 461
b 58 29 81 280 285 459 460 461
b 59 29 280 283 285 460 461
b 60 131 280 283 460 461
b 61 285 288 292 388 464 466
b 62 285 286 288 464 465 466
b 63 127 285 286 464 465
b 64 1 286 288 465 466
b 65 288 292 388 466 467
b 66 71 112 280 292 341 347 358 387 456 459
b 67 71 112 226 239 280 292 341 358 387 456
b 68 71 112 226 233 239
b 69 226 239 277 280 292 341 358 387 454 456
b 70 277 278 280 454 455 456
b 71 32 277 278 454 455
b 72 6 278 280 455 456
b 73 226 239 277 292 341 358 384 387 453 454
b 74 195 384 387 453 454
b 75 226 239 277 292 339 341 358 384 452 453
b 76 182 339 341 452 453
b 77 225 226 239 277 292 339 358 384 451 452
b 78 225 239 274 277 292 339 358 384 450 451
b 79 224 225 239 274 292 339 358 384 449 450
b 80 110 224 225 449 450
b 81 224 239 274 292 338 339 358 384 448 449
b 82 224 239 273 274 292 338 358 384 447 448
b 83 168 273 274 447 448
b 84 224 239 273 292 335 338 358 384 446 447
b 85 224 239 273 292 335 358 382 384 445 446
b 86 186 382 384 445 446
b 87 222 224 239 273 292 335 358 382 444 445
b 88 134 222 224 444 445
b 89 37 222 239 272 273 292 335 358 382 444
b 90 37 222 239 272 292 335 358 382 443 444
b 91 222 239 272 292 333 335 358 382 442 443
b 92 115 333 335 442 443
b 93 222 239 270 272 292 333 358 382 440 442
b 94 222 239 270 292 331 333 358 382 438 440
b 95 222 239 266 270 292 331 358 382 435 438
b 96 266 267 270 435 436 438
b 97 267 268 270 436 437 438
b 98 122 268 270 436 437
b 99 65 267 268 437 438
b 100 111 266 267 435 436
b 101 220 222 239 266 292 331 358 382 434 435
b 102 126 220 222 434 435
b 103 220 239 266 292 327 331 358 382 433 434
b 104 44 327 331 433 434
b 105 215 220 239 266 292 327 358 382 430 433
b 106 215 239 266 292 327 358 373 382 429 430
b 107 166 373 382 429 430
b 108 215 239 266 292 319 327 358 373 428 429
b 109 215 239 266 292 319 358 372 373 427 428
b 110 180 372 373 427 428
b 111 107 215 239 266 292 319 358 372 426 427
b 112 107 215 239 266 292 316 319 358 372 426
b 113 215 239 266 292 314 316 358 372 425 426
b 114 63 314 316 425 426
b 115 215 239 260 266 292 314 358 372 424 425
b 116 12 260 266 424 425
b 117 215 239 260 292 314 358 370 372 422 424
b 118 370 371 372 422 423 424
b 119 136 370 371 422 423
b 120 161 371 372 423 424
b 121 213 215 239 260 292 314 358 370 421 422
b 122 213 239 260 292 314 358 367 370 418 421
b 123 211 213 239 260 292 314 358 367 417 418
b 124 98 211 213 417 418
b 125 211 239 260 292 310 314 358 367 416 417
b 126 211 239 260 292 310 358 363 367 415 416
b 127 211 239 260 292 308 310 358 363 414 415
b 128 211 239 251 260 292 308 358 363 413 414
b 129 69 251 260 413 414
b 130 93 308 310 414 415
b 131 163 363 367 415 416
b 132 113 310 314 416 417
b 133 367 369 370 418 419 421
b 134 102 369 370 418 419
b 135 367 368 369 419 420 421
b 136 179 368 369 419 420
b 137 185 367 368 420 421
b 138 83 213 215 421 422
b 139 133 319 327 428 429
b 140 215 217 220 430 432 433
b 141 15 217 220 432 433
b 142 215 216 217 430 431 432
b 143 124 216 217 431 432
b 144 121 215 216 430 431
b 145 331 332 333 438 439 440
b 146 52 332 333 438 439
b 147 66 331 332 439 440
b 148 270 271 272 440 441 442
b 149 5 271 272 440 441
b 150 188 270 271 441 442
b 151 56 335 338 446 447
b 152 96 338 339 448 449
b 153 21 274 277 450 451
b 154 135 225 226 451 452
b 155 71 341 342 347 456 458 459
b 156 71 342 347 456 457 458
b 157 155 342 347 456 457
b 158 77 341 342 458 459
b 159 203 207 211 302 308 406 412 413
b 160 203 211 239 251 292 302 308 404 406 413
b 161 211 239 251 292 308 358 363 404 406 413
b 162 203 239 240 251 292 296 302 398 404
b 163 240 242 251 296 302 398 401 404
b 164 242 247 251 401 403 404
b 165 242 245 247 401 402 403
b 166 191 242 245 401 402
b 167 114 245 247 402 403
b 168 104 247 251 403 404
b 169 240 242 296 302 398 399 401
b 170 296 298 302 399 400 401
b 171 86 296 298 399 400
b 172 120 298 302 400 401
b 173 171 240 242 398 399
b 174 203 239 240 292 296 395 396 398
b 175 203 292 295 296 395 396 397 398
b 176 201 203 292 295 395 396 397
b 177 118 201 203 396 397
b 178 154 201 292 295 395
b 179 82 295 296 397 398
b 180 24 239 240 395 396
b 181 358 359 363 404 405 406
b 182 167 359 363 404 405
b 183 61 358 359 405 406
b 184 152 207 211 412 413
b 185 203 205 207 302 308 406 408 412
b 186 203 204 205 406 407 408
b 187 4 204 205 407 408
b 188 36 203 204 406 407
b 189 205 207 302 304 308 408 410 412
b 190 205 207 302 304 408 409 410
b 191 7 302 304 408 409
b 192 9 205 207 409 410
b 193 304 305 308 410 411 412
b 194 148 304 305 410 411
b 195 147 305 308 411 412
b 196 154 201 393 394 395
b 197 125 201 393 394 395
b 198 28 386 387
b 199 385 386 387
b 200 33 385 386
b 201 64 383 384
b 202 128 381 382
b 203 374 381 382
b 204 106 380 381
b 205 374 380 381
b 206 78 379 380
b 207 374 379 380
b 208 25 378 379
b 209 374 378 379
b 210 95 377 378
b 211 374 377 378
b 212 87 376 377
b 213 374 376 377
b 214 19 375 376
b 215 374 375 376
b 216 146 374 375
b 217 169 366 367
b 218 364 366 367
b 219 54 365 366
b 220 364 365 366
b 221 175 364 365
b 222 67 362 363
b 223 360 362 363
b 224 79 361 362
b 225 360 361 362
b 226 70 360 361
b 227 38 357 358
b 228 348 357 358
b 229 11 356 357
b 230 348 356 357
b 231 73 355 356
b 232 348 355 356
b 233 100 354 355
b 234 348 354 355
b 235 164 353 354
b 236 348 353 354
b 237 74 352 353
b 238 348 352 353
b 239 172 351 352
b 240 348 351 352
b 241 138 350 351
b 242 348 350 351
b 243 27 349 350
b 244 348 349 350
b 245 51 348 349
b 246 76 346 347
b 247 343 346 347
b 248 193 345 346
b 249 343 345 346
b 250 59 344 345
b 251 343 344 345
b 252 53 343 344
b 253 34 340 341
b 254 108 337 338
b 255 336 337 338
b 256 176 336 337
b 257 57 334 335
b 258 8 330 331
b 259 328 330 331
b 260 97 329 330
b 261 328 329 330
b 262 45 328 329
b 263 187 326 327
b 264 320 326 327
b 265 160 325 326
b 266 320 325 326
b 267 156 324 325
b 268 320 324 325
b 269 132 323 324
b 270 320 323 324
b 271 16 322 323
b 272 320 322 323
b 273 42 321 322
b 274 320 321 322
b 275 3 320 321
b 276 40 318 319
b 277 317 318 319
b 278 99 317 318
b 279 50 315 316
b 280 137 313 314
b 281 311 313 314
b 282 14 312 313
b 283 311 312 313
b 284 68 311 312
b 285 85 309 310
b 286 158 307 308
b 287 306 307 308
b 288 178 306 307
b 289 60 303 304
b 290 119 301 302
b 291 299 301 302
b 292 47 300 301
b 293 299 300 301
b 294 41 299 300
b 295 117 297 298
b 296 184 294 295
b 297 293 294 295
b 298 72 293 294
b 299 130 291 292
b 300 94 289 290
b 301 39 287 288
b 302 183 284 285
b 303 46 282 283
b 304 281 282 283
b 305 26 281 282
b 306 181 279 280
b 307 153 276 277
b 308 275 276 277
b 309 189 275 276
b 310 116 269 270
b 311 144 265 266
b 312 261 265 266
b 313 88 264 265
b 314 261 264 265
b 315 170 263 264
b 316 261 263 264
b 317 142 262 263
b 318 261 262 263
b 319 174 261 262
b 320 49 259 260
b 321 252 259 260
b 322 84 258 259
b 323 252 258 259
b 324 139 257 258
b 325 252 257 258
b 326 190 256 257
b 327 252 256 257
b 328 123 255 256
b 329 252 255 256
b 330 23 254 255
b 331 252 254 255
b 332 91 253 254
b 333 252 253 254
b 334 159 252 253
b 335 109 250 251
b 336 248 250 251
b 337 141 249 250
b 338 248 249 250
b 339 129 248 249
b 340 101 246 247
b 341 89 244 245
b 342 243 244 245
b 343 55 243 244
b 344 140 241 242
b 345 150 238 239
b 346 234 238 239
b 347 80 237 238
b 348 234 237 238
b 349 162 236 237
b 350 234 236 237
b 351 165 235 236
b 352 234 235 236
b 353 92 234 235
b 354 197 232 233
b 355 227 232 233
b 356 149 231 232
b 357 227 231 232
b 358 2 230 231
b 359 227 230 231
b 360 17 229 230
b 361 227 229 230
b 362 22 228 229
b 363 227 228 229
b 364 20 227 228
b 365 177 223 224
b 366 13 221 222
b 367 192 219 220
b 368 218 219 220
b 369 157 218 219
b 370 103 214 215
b 371 194 212 213
b 372 58 210 211
b 373 208 210 211
b 374 35 209 210
b 375 208 209 210
b 376 30 208 209
b 377 10 206 207
b 378 18 202 203
b 379 105 200 393
b 380 48 390 391
b 381 151 390 391
b 382 145 151 391
b 383 62 389 390
b 384 151 389 390
b 385 151 388 389
b 386 173 388 389
b 387 105 392 393
b 388 43 199 200
b 389 105 199 200
b 390 105 198 199
1 387
2 390
3 385
3 65
4 379
4 197
5 378
5 177
6 377
6 192
7 373
7 184
8 371
8 124
9 370
9 138
10 368
10 141
11 366
11 102
12 365
12 88
13 355
13 68
14 346
14 68
15 344
15 173
16 342
16 166
17 340
17 167
18 336
18 168
19 321
19 129
20 312
20 116
21 310
21 98
22 308
22 153
23 306
23 72
24 304
24 60
25 302
25 59
26 301
26 64
27 300
27 50
28 299
28 51
29 297
29 178
30 295
30 171
31 291
31 172
32 289
32 191
33 287
33 195
34 285
34 130
35 281
35 132
36 279
36 114
37 277
37 112
38 264
38 139
39 259
39 104
40 257
40 92
41 255
41 151
42 253
42 76
43 247
43 157
44 228
44 53
45 223
45 182
46 218
46 131
47 203
47 107
48 201
48 86
49 199
49 74
50 51
51 65
52 66
52 53
52 56
53 54
54 55
56 57
56 61
57 58
58 59
59 60
61 65
61 62
62 63
62 64
66 155
66 67
67 69
67 68
69 73
69 70
70 71
70 72
73 75
73 74
75 77
75 76
77 154
77 78
78 153
78 79
79 81
79 80
81 152
81 82
82 84
82 83
84 151
84 85
85 87
85 86
87 89
87 88
89 90
90 91
91 93
91 92
93 148
93 94
94 145
94 95
95 101
95 96
96 97
96 100
97 99
97 98
101 103
101 102
103 105
103 104
105 140
105 106
106 108
106 107
108 139
108 109
109 111
109 110
111 112
112 113
113 115
113 114
115 117
115 116
117 121
117 118
118 119
118 120
121 138
121 122
122 133
122 123
123 125
123 124
125 132
125 126
126 131
126 127
127 130
127 128
128 161
128 129
133 135
133 134
135 136
135 137
140 142
140 141
142 144
142 143
145 147
145 146
148 149
148 150
155 156
155 158
156 157
159 185
159 184
159 160
160 162
160 161
161 181
162 163
162 174
163 169
163 164
164 165
164 168
165 166
165 167
169 173
169 170
170 172
170 171
174 180
174 175
175 176
175 179
176 178
176 177
178 196
181 182
181 183
185 189
185 186
186 188
186 187
189 190
189 193
190 192
190 191
193 195
193 194
196 197
198 199
199 200
202 203
203 205
204 205
205 207
206 207
207 209
208 209
209 211
210 211
211 213
212 213
213 215
214 215
215 216
217 218
218 220
219 220
220 221
222 223
223 225
224 225
225 226
227 228
228 230
229 230
230 232
231 232
232 234
233 234
234 236
235 236
236 238
237 238
238 240
239 240
240 242
241 242
242 244
243 244
244 245
246 247
247 249
248 249
249 251
250 251
251 252
254 255
255 256
258 259
259 261
260 261
261 262
263 264
264 266
265 266
266 268
267 268
268 270
269 270
270 272
271 272
272 274
273 274
274 275
276 277
277 278
280 281
281 283
282 283
283 284
286 287
287 288
290 291
291 293
292 293
293 294
296 297
297 298
303 304
304 305
307 308
308 309
311 312
312 314
313 314
314 316
315 316
316 318
317 318
318 319
320 321
321 323
322 323
323 325
324 325
325 327
326 327
327 329
328 329
329 331
330 331
331 333
332 333
333 334
335 336
336 338
337 338
338 339
341 342
342 343
345 346
346 348
347 348
348 350
349 350
350 352
351 352
352 353
354 355
355 357
356 357
357 359
358 359
359 361
360 361
361 363
362 363
363 364
367 368
368 369
372 373
373 375
374 375
375 376
379 389
379 387
380 381
381 384
381 382
383 384
384 385
385 386
388 389
389 390
